c nIsolatedPIs 18
c maxPI 6
p cnf 13 22
c gate 7 2 5 0
2 -7 0
5 -7 0
-2 -5 7 0
c gate 8 4 7 0
4 -8 0
7 -8 0
-4 -7 8 0
c gate 9 3 6 0
3 -9 0
6 -9 0
-3 -6 9 0
c gate 10 -3 -6 0
-3 -10 0
-6 -10 0
3 6 10 0
c gate 11 -9 -10 0
-9 -11 0
-10 -11 0
9 10 11 0
c gate 12 1 -11 0
1 -12 0
-11 -12 0
-1 11 12 0
c gate 13 8 12 0
8 -13 0
12 -13 0
-8 -12 13 0
c PO
13 0
